Minimize
  - 12 y_0 - 7 y_1 - 30 y_2 - 23 y_3 - 32 y_4 - 32 y_5 - 18 y_6 - 23 y_7
   - 8 y_8 - 17 y_9 - 23 y_10 - 21 y_11 - 15 y_12 - 12 y_13 - 14 y_14
   - 24 y_15 - 15 y_16 - 20 y_17 - 22 y_18 - 22 y_19 - 23 y_20 - 22 y_21
   - 22 y_22 - 15 y_23 - 22 y_24 - 23 y_25 - 21 y_26 - 7 y_27 - 18 y_28
   - 29 y_29 - 12 y_30 - 19 y_31 - 14 y_32 - 15 y_33 - 21 y_35 - 19 y_36
   - 10 y_37 - 26 y_38 - 32 y_39 - 30 y_40 - 26 y_41 - 21 y_42 - 19 y_43
   - 29 y_44 - 8 y_45 - 31 y_46 - 18 y_47 - 33 y_48 - 20 y_49 + 22 x_0_1
   + 73 x_0_2 + 48 x_0_3 + 75 x_0_4 + 74 x_0_5 + 39 x_0_8 + 28 x_0_9
   + 54 x_0_12 + 27 x_0_13 + 37 x_0_14 + 18 x_0_17 + 30 x_0_18 + 35 x_0_19
   + 34 x_0_20 + 68 x_0_21 + 34 x_0_24 + 30 x_0_25 + 39 x_0_26 + 73 x_0_29
   + 45 x_0_30 + 62 x_0_31 + 25 x_0_32 + 47 x_0_33 + 24 x_0_34 + 39 x_0_35
   + 52 x_0_36 + 43 x_0_37 + 57 x_0_38 + 58 x_0_39 + 41 x_0_40 + 33 x_0_41
   + 35 x_0_45 + 37 x_0_47 + 62 x_0_49 + 52 x_1_2 + 33 x_1_3 + 54 x_1_4
   + 34 x_1_7 + 22 x_1_8 + 36 x_1_10 + 48 x_1_11 + 40 x_1_12 + 36 x_1_13
   + 16 x_1_14 + 37 x_1_15 + 34 x_1_17 + 29 x_1_19 + 53 x_1_20 + 52 x_1_21
   + 15 x_1_23 + 29 x_1_24 + 32 x_1_25 + 27 x_1_26 + 25 x_1_27 + 23 x_1_28
   + 52 x_1_29 + 24 x_1_30 + 47 x_1_31 + 44 x_1_33 + 15 x_1_34 + 53 x_1_35
   + 30 x_1_36 + 40 x_1_38 + 42 x_1_41 + 57 x_1_42 + 45 x_1_43 + 47 x_1_44
   + 30 x_1_45 + 71 x_1_46 + 56 x_1_48 + 32 x_2_3 + 6 x_2_5 + 42 x_2_6
   + 65 x_2_7 + 51 x_2_8 + 16 x_2_10 + 36 x_2_14 + 72 x_2_15 + 87 x_2_16
   + 78 x_2_17 + 62 x_2_18 + 52 x_2_19 + 62 x_2_21 + 51 x_2_23 + 53 x_2_24
   + 63 x_2_25 + 43 x_2_26 + 60 x_2_27 + 50 x_2_32 + 82 x_2_33 + 61 x_2_34
   + 103 x_2_35 + 23 x_2_36 + 65 x_2_37 + 22 x_2_38 + 124 x_2_39
   + 97 x_2_43 + 72 x_2_45 + 122 x_2_46 + 40 x_2_47 + 86 x_2_48 + 78 x_2_49
   + 31 x_3_4 + 34 x_3_7 + 74 x_3_9 + 68 x_3_13 + 20 x_3_14 + 49 x_3_17
   + 21 x_3_19 + 82 x_3_20 + 85 x_3_22 + 22 x_3_24 + 32 x_3_25 + 53 x_3_27
   + 14 x_3_28 + 38 x_3_29 + 38 x_3_30 + 47 x_3_34 + 85 x_3_35 + 60 x_3_37
   + 105 x_3_39 + 44 x_3_41 + 62 x_3_45 + 102 x_3_46 + 54 x_3_48 + 43 x_4_6
   + 64 x_4_7 + 55 x_4_8 + 19 x_4_10 + 102 x_4_11 + 88 x_4_13 + 38 x_4_14
   + 71 x_4_15 + 90 x_4_16 + 52 x_4_19 + 107 x_4_20 + 68 x_4_21 + 52 x_4_23
   + 52 x_4_24 + 62 x_4_25 + 42 x_4_26 + 65 x_4_27 + 15 x_4_29 + 44 x_4_30
   + 51 x_4_32 + 86 x_4_33 + 27 x_4_36 + 70 x_4_37 + 20 x_4_38 + 128 x_4_39
   + 73 x_4_40 + 75 x_4_41 + 102 x_4_42 + 12 x_4_44 + 76 x_4_45
   + 125 x_4_46 + 40 x_4_47 + 84 x_4_49 + 42 x_5_6 + 64 x_5_7 + 55 x_5_8
   + 19 x_5_10 + 101 x_5_11 + 67 x_5_12 + 88 x_5_13 + 37 x_5_14 + 71 x_5_15
   + 78 x_5_17 + 51 x_5_19 + 107 x_5_20 + 51 x_5_23 + 52 x_5_24 + 62 x_5_25
   + 42 x_5_26 + 64 x_5_27 + 31 x_5_28 + 43 x_5_30 + 51 x_5_32 + 64 x_5_34
   + 106 x_5_35 + 26 x_5_36 + 70 x_5_37 + 20 x_5_38 + 127 x_5_39
   + 74 x_5_41 + 101 x_5_42 + 12 x_5_44 + 75 x_5_45 + 124 x_5_46
   + 40 x_5_47 + 83 x_5_49 + 62 x_6_9 + 30 x_6_10 + 64 x_6_11 + 59 x_6_12
   + 57 x_6_13 + 53 x_6_16 + 36 x_6_17 + 21 x_6_18 + 69 x_6_20 + 72 x_6_22
   + 11 x_6_23 + 46 x_6_27 + 15 x_6_28 + 46 x_6_29 + 10 x_6_32 + 66 x_6_33
   + 72 x_6_35 + 29 x_6_36 + 53 x_6_37 + 23 x_6_38 + 92 x_6_39 + 35 x_6_40
   + 34 x_6_41 + 79 x_6_42 + 32 x_6_44 + 53 x_6_45 + 89 x_6_46 + 73 x_6_49
   + 56 x_7_8 + 58 x_7_9 + 53 x_7_10 + 55 x_7_11 + 57 x_7_13 + 37 x_7_14
   + 7 x_7_15 + 49 x_7_16 + 20 x_7_17 + 60 x_7_20 + 68 x_7_22 + 22 x_7_26
   + 59 x_7_27 + 38 x_7_28 + 69 x_7_29 + 55 x_7_30 + 21 x_7_32 + 68 x_7_35
   + 52 x_7_36 + 65 x_7_37 + 44 x_7_38 + 86 x_7_39 + 13 x_7_40 + 11 x_7_41
   + 54 x_7_43 + 61 x_7_45 + 26 x_7_47 + 23 x_7_48 + 86 x_7_49 + 48 x_8_9
   + 19 x_8_12 + 38 x_8_13 + 26 x_8_14 + 59 x_8_15 + 45 x_8_16 + 54 x_8_17
   + 54 x_8_18 + 50 x_8_19 + 30 x_8_21 + 57 x_8_22 + 50 x_8_24 + 54 x_8_25
   + 9 x_8_27 + 32 x_8_28 + 47 x_8_29 + 12 x_8_30 + 25 x_8_31 + 36 x_8_32
   + 16 x_8_34 + 28 x_8_36 + 15 x_8_37 + 77 x_8_39 + 69 x_8_40 + 64 x_8_41
   + 47 x_8_42 + 55 x_8_43 + 52 x_8_44 + 21 x_8_45 + 39 x_8_47 + 78 x_8_48
   + 33 x_8_49 + 13 x_9_11 + 55 x_9_12 + 11 x_9_13 + 59 x_9_14 + 9 x_9_16
   + 41 x_9_17 + 58 x_9_18 + 63 x_9_19 + 11 x_9_22 + 51 x_9_23 + 62 x_9_24
   + 58 x_9_25 + 66 x_9_26 + 41 x_9_27 + 66 x_9_28 + 92 x_9_29 + 59 x_9_30
   + 51 x_9_32 + 35 x_9_33 + 34 x_9_34 + 11 x_9_35 + 71 x_9_36 + 42 x_9_37
   + 31 x_9_39 + 59 x_9_41 + 35 x_9_42 + 10 x_9_43 + 31 x_9_45 + 63 x_9_47
   + 70 x_9_48 + 54 x_9_49 + 50 x_10_12 + 69 x_10_13 + 20 x_10_14
   + 72 x_10_16 + 64 x_10_17 + 51 x_10_18 + 41 x_10_19 + 89 x_10_20
   + 88 x_10_22 + 51 x_10_25 + 32 x_10_26 + 46 x_10_27 + 16 x_10_28
   + 16 x_10_29 + 25 x_10_30 + 50 x_10_31 + 36 x_10_32 + 68 x_10_33
   + 45 x_10_34 + 51 x_10_37 + 17 x_10_38 + 64 x_10_41 + 81 x_10_43
   + 17 x_10_44 + 57 x_10_45 + 28 x_10_47 + 76 x_10_48 + 66 x_11_12
   + 23 x_11_13 + 64 x_11_14 + 51 x_11_15 + 63 x_11_19 + 16 x_11_22
   + 53 x_11_23 + 62 x_11_24 + 56 x_11_25 + 67 x_11_26 + 71 x_11_28
   + 99 x_11_29 + 67 x_11_30 + 53 x_11_32 + 47 x_11_33 + 42 x_11_34
   + 53 x_11_37 + 31 x_11_39 + 63 x_11_40 + 54 x_11_41 + 48 x_11_42
   + 3 x_11_43 + 94 x_11_44 + 65 x_11_47 + 64 x_11_48 + 66 x_11_49
   + 77 x_12_15 + 54 x_12_16 + 72 x_12_18 + 69 x_12_19 + 70 x_12_20
   + 14 x_12_21 + 55 x_12_23 + 68 x_12_24 + 63 x_12_26 + 49 x_12_28
   + 55 x_12_29 + 9 x_12_31 + 54 x_12_32 + 25 x_12_33 + 31 x_12_34
   + 60 x_12_35 + 42 x_12_36 + 13 x_12_37 + 64 x_12_38 + 79 x_12_39
   + 82 x_12_41 + 39 x_12_42 + 63 x_12_43 + 67 x_12_44 + 57 x_12_47
   + 96 x_12_48 + 56 x_13_15 + 14 x_13_16 + 57 x_13_18 + 60 x_13_19
   + 27 x_13_20 + 57 x_13_21 + 47 x_13_23 + 59 x_13_24 + 57 x_13_25
   + 30 x_13_27 + 58 x_13_28 + 48 x_13_30 + 47 x_13_32 + 25 x_13_33
   + 24 x_13_34 + 19 x_13_35 + 62 x_13_36 + 30 x_13_37 + 75 x_13_38
   + 40 x_13_39 + 68 x_13_40 + 60 x_13_41 + 29 x_13_42 + 20 x_13_43
   + 82 x_13_44 + 19 x_13_45 + 37 x_13_46 + 57 x_13_47 + 43 x_13_49
   + 42 x_14_15 + 52 x_14_16 + 44 x_14_17 + 35 x_14_18 + 27 x_14_19
   + 69 x_14_20 + 18 x_14_23 + 28 x_14_24 + 35 x_14_25 + 7 x_14_28
   + 37 x_14_29 + 20 x_14_30 + 48 x_14_31 + 28 x_14_34 + 69 x_14_35
   + 16 x_14_36 + 40 x_14_37 + 24 x_14_38 + 90 x_14_39 + 50 x_14_40
   + 69 x_14_42 + 61 x_14_43 + 31 x_14_44 + 14 x_14_47 + 60 x_14_48
   + 59 x_14_49 + 46 x_15_16 + 15 x_15_17 + 20 x_15_19 + 56 x_15_20
   + 65 x_15_22 + 24 x_15_23 + 9 x_15_25 + 29 x_15_26 + 61 x_15_27
   + 44 x_15_28 + 76 x_15_29 + 59 x_15_30 + 83 x_15_31 + 48 x_15_34
   + 65 x_15_35 + 58 x_15_36 + 67 x_15_37 + 51 x_15_38 + 12 x_15_40
   + 62 x_15_45 + 77 x_15_46 + 32 x_15_47 + 19 x_15_48 + 32 x_16_17
   + 49 x_16_18 + 18 x_16_20 + 19 x_16_22 + 43 x_16_23 + 49 x_16_25
   + 57 x_16_26 + 59 x_16_28 + 86 x_16_29 + 54 x_16_30 + 43 x_16_32
   + 65 x_16_36 + 41 x_16_37 + 74 x_16_38 + 39 x_16_39 + 58 x_16_40
   + 50 x_16_41 + 42 x_16_42 + 10 x_16_43 + 82 x_16_44 + 31 x_16_45
   + 54 x_16_47 + 61 x_16_48 + 21 x_17_18 + 30 x_17_19 + 41 x_17_20
   + 84 x_17_21 + 50 x_17_22 + 27 x_17_23 + 29 x_17_24 + 37 x_17_26
   + 54 x_17_27 + 48 x_17_28 + 80 x_17_29 + 78 x_17_31 + 28 x_17_32
   + 64 x_17_33 + 40 x_17_34 + 51 x_17_35 + 60 x_17_37 + 59 x_17_38
   + 67 x_17_39 + 26 x_17_40 + 72 x_17_42 + 36 x_17_43 + 67 x_17_44
   + 53 x_17_45 + 38 x_17_47 + 79 x_17_49 + 61 x_18_20 + 84 x_18_21
   + 68 x_18_22 + 17 x_18_23 + 10 x_18_24 + x_18_25 + 20 x_18_26
   + 57 x_18_27 + 36 x_18_28 + 67 x_18_29 + 53 x_18_30 + 73 x_18_33
   + 44 x_18_34 + 68 x_18_35 + 49 x_18_36 + 64 x_18_37 + 42 x_18_38
   + 86 x_18_39 + 13 x_18_41 + 84 x_18_42 + 54 x_18_43 + 60 x_18_45
   + 26 x_18_48 + 84 x_18_49 + 79 x_19_21 + 73 x_19_22 + 14 x_19_23
   + 11 x_19_25 + 55 x_19_27 + 27 x_19_28 + 47 x_19_30 + 74 x_19_31
   + 73 x_19_33 + 44 x_19_34 + 41 x_19_36 + 32 x_19_38 + 93 x_19_39
   + 23 x_19_40 + 85 x_19_42 + 40 x_19_44 + 88 x_19_46 + 14 x_19_47
   + 34 x_19_48 + 82 x_19_49 + 84 x_20_21 + 15 x_20_22 + 67 x_20_24
   + 72 x_20_26 + 56 x_20_27 + 76 x_20_28 + 104 x_20_29 + 72 x_20_30
   + 79 x_20_31 + 50 x_20_33 + 47 x_20_34 + 16 x_20_35 + 83 x_20_36
   + 91 x_20_38 + 26 x_20_39 + 67 x_20_40 + 99 x_20_44 + 46 x_20_45
   + 22 x_20_46 + 70 x_20_47 + 67 x_20_48 + 74 x_21_22 + 66 x_21_23
   + 84 x_21_25 + 72 x_21_26 + 31 x_21_27 + 56 x_21_28 + 54 x_21_29
   + 6 x_21_31 + 65 x_21_32 + 37 x_21_33 + 44 x_21_34 + 46 x_21_36
   + 27 x_21_37 + 69 x_21_38 + 91 x_21_39 + 99 x_21_40 + 94 x_21_41
   + 77 x_21_43 + 70 x_21_44 + 91 x_21_46 + 108 x_21_48 + 73 x_22_19
   + 62 x_22_23 + 68 x_22_25 + 76 x_22_26 + 49 x_22_27 + 76 x_22_28
   + 68 x_22_30 + 69 x_22_31 + 62 x_22_32 + x_22_35 + 81 x_22_36
   + 48 x_22_37 + 93 x_22_38 + 21 x_22_39 + 68 x_22_41 + 38 x_22_45
   + 57 x_22_49 + 14 x_23_24 + 15 x_23_26 + 41 x_23_27 + 22 x_23_28
   + 54 x_23_29 + 35 x_23_30 + 61 x_23_31 + 29 x_23_34 + 62 x_23_35
   + 34 x_23_36 + 82 x_23_39 + 29 x_23_41 + 71 x_23_42 + 51 x_23_43
   + 42 x_23_44 + 45 x_23_45 + 12 x_23_47 + 43 x_23_48 + 10 x_24_25
   + 54 x_24_27 + 27 x_24_28 + 58 x_24_29 + 74 x_24_31 + 15 x_24_32
   + 72 x_24_33 + 73 x_24_35 + 41 x_24_36 + 61 x_24_37 + 32 x_24_38
   + 92 x_24_39 + 23 x_24_40 + 22 x_24_41 + 85 x_24_42 + 60 x_24_43
   + 59 x_24_45 + 88 x_24_46 + 15 x_24_47 + 34 x_24_48 + 82 x_24_49
   + 57 x_25_27 + 67 x_25_29 + 53 x_25_30 + 19 x_25_32 + 73 x_25_33
   + 45 x_25_34 + 69 x_25_35 + 64 x_25_37 + 86 x_25_39 + 15 x_25_40
   + 12 x_25_41 + 84 x_25_42 + 51 x_25_44 + 60 x_25_45 + 82 x_25_46
   + 24 x_25_47 + 25 x_25_48 + 85 x_25_49 + 51 x_26_27 + 18 x_26_28
   + 48 x_26_29 + 68 x_26_31 + 15 x_26_32 + 71 x_26_33 + 76 x_26_35
   + 32 x_26_36 + 58 x_26_37 + 22 x_26_38 + 32 x_26_40 + 65 x_26_43
   + 31 x_26_44 + 58 x_26_45 + 93 x_26_46 + 6 x_26_47 + 44 x_26_48
   + 78 x_26_49 + 40 x_27_28 + 56 x_27_29 + 21 x_27_30 + 25 x_27_31
   + 40 x_27_32 + 14 x_27_34 + 38 x_27_36 + 56 x_27_38 + 69 x_27_39
   + 72 x_27_40 + 66 x_27_41 + 49 x_27_43 + 80 x_27_48 + 32 x_28_29
   + 24 x_28_30 + 52 x_28_31 + 21 x_28_32 + 35 x_28_34 + 14 x_28_36
   + 47 x_28_37 + 17 x_28_38 + 97 x_28_39 + 50 x_28_40 + 68 x_28_43
   + 49 x_28_45 + 61 x_28_48 + 65 x_28_49 + 53 x_29_31 + 77 x_29_33
   + 58 x_29_34 + 21 x_29_36 + 28 x_29_38 + 122 x_29_39 + 80 x_29_40
   + 80 x_29_41 + 92 x_29_42 + 96 x_29_43 + 24 x_29_44 + 120 x_29_46
   + 44 x_29_47 + 91 x_29_48 + 71 x_29_49 + 28 x_30_31 + 67 x_30_35
   + 38 x_30_38 + 88 x_30_39 + 68 x_30_40 + 58 x_30_42 + 64 x_30_43
   + 42 x_30_44 + 33 x_30_45 + 33 x_30_47 + 42 x_30_49 + 60 x_31_32
   + 68 x_31_35 + 43 x_31_36 + 65 x_31_38 + 87 x_31_39 + 94 x_31_40
   + 88 x_31_41 + 46 x_31_42 + 67 x_31_44 + 32 x_31_45 + 86 x_31_46
   + 103 x_31_48 + 20 x_31_49 + 62 x_32_35 + 47 x_32_37 + 82 x_32_39
   + 34 x_32_40 + 41 x_32_44 + 45 x_32_45 + 78 x_32_46 + 29 x_33_34
   + 78 x_33_38 + 54 x_33_39 + 86 x_33_40 + 79 x_33_41 + 16 x_33_42
   + 45 x_33_43 + 83 x_33_44 + 13 x_33_45 + 54 x_33_46 + 65 x_33_47
   + 43 x_34_35 + 20 x_34_37 + 52 x_34_38 + 64 x_34_39 + 59 x_34_40
   + 53 x_34_41 + 58 x_34_44 + 61 x_34_46 + 36 x_34_47 + 67 x_34_48
   + 92 x_35_38 + 77 x_35_40 + 69 x_35_41 + 33 x_35_42 + 37 x_35_45
   + 19 x_35_46 + 73 x_35_47 + 56 x_35_49 + 43 x_36_37 + 22 x_36_38
   + 64 x_36_40 + 62 x_36_41 + 75 x_36_42 + 49 x_36_45 + 27 x_36_47
   + 75 x_36_48 + 58 x_36_49 + 63 x_37_38 + 67 x_37_39 + 72 x_37_41
   + 32 x_37_42 + 52 x_37_47 + 86 x_37_48 + 20 x_37_49 + 113 x_38_39
   + 53 x_38_40 + 54 x_38_41 + 93 x_38_42 + 8 x_38_44 + 66 x_38_45
   + 110 x_38_46 + 21 x_38_47 + 80 x_38_49 + 84 x_39_41 + 121 x_39_44
   + 57 x_39_45 + 5 x_39_46 + 93 x_39_47 + 93 x_39_48 + 72 x_39_49
   + 9 x_40_41 + 96 x_40_42 + 62 x_40_43 + 61 x_40_44 + 74 x_40_45
   + 37 x_40_47 + 11 x_40_48 + 99 x_40_49 + 89 x_41_42 + 63 x_41_44
   + 67 x_41_45 + 80 x_41_46 + 14 x_41_48 + 92 x_41_49 + 99 x_42_44
   + 27 x_42_45 + 46 x_42_46 + 102 x_42_48 + 91 x_43_44 + 28 x_43_46
   + 63 x_43_47 + 72 x_44_45 + 83 x_44_49 + 81 x_45_48 + 90 x_46_47
   + 72 x_46_49 + 48 x_47_48 + 71 x_47_49 + 107 x_48_49 + 995 Constant
Subject To
 c_0: y_16 = 1
 c_1_0: y_0 >= 1
 c_1_1: y_1 >= 1
 c_1_2: y_2 >= 1
 c_1_3: y_3 >= 1
 c_1_4: y_4 + y_5 >= 1
 c_1_5: y_4 + y_5 >= 1
 c_1_6: y_6 >= 1
 c_1_7: y_7 + y_25 >= 1
 c_1_8: y_8 >= 1
 c_1_9: y_9 >= 1
 c_1_10: y_10 >= 1
 c_1_11: y_11 >= 1
 c_1_12: y_12 >= 1
 c_1_13: y_13 >= 1
 c_1_14: y_14 >= 1
 c_1_15: y_15 >= 1
 c_1_16: y_16 >= 1
 c_1_17: y_17 >= 1
 c_1_18: y_18 + y_25 >= 1
 c_1_19: y_19 + y_24 >= 1
 c_1_20: y_20 >= 1
 c_1_21: y_21 >= 1
 c_1_22: y_22 + y_35 >= 1
 c_1_23: y_23 + y_32 >= 1
 c_1_24: y_19 + y_24 >= 1
 c_1_25: y_7 + y_18 + y_25 >= 1
 c_1_26: y_26 >= 1
 c_1_27: y_27 >= 1
 c_1_28: y_28 >= 1
 c_1_29: y_29 >= 1
 c_1_30: y_30 >= 1
 c_1_31: y_31 >= 1
 c_1_32: y_23 + y_32 >= 1
 c_1_33: y_33 >= 1
 c_1_34: y_34 >= 1
 c_1_35: y_22 + y_35 >= 1
 c_1_36: y_36 >= 1
 c_1_37: y_37 >= 1
 c_1_38: y_38 >= 1
 c_1_39: y_39 >= 1
 c_1_40: y_40 >= 1
 c_1_41: y_41 >= 1
 c_1_42: y_42 >= 1
 c_1_43: y_43 >= 1
 c_1_44: y_44 >= 1
 c_1_45: y_45 >= 1
 c_1_46: y_46 >= 1
 c_1_47: y_47 >= 1
 c_1_48: y_48 >= 1
 c_1_49: y_49 >= 1
 c_2_0: - 2 y_0 + x_0_1 + x_0_2 + x_0_3 + x_0_4 + x_0_5 + x_0_8 + x_0_9
   + x_0_12 + x_0_13 + x_0_14 + x_0_17 + x_0_18 + x_0_19 + x_0_20 + x_0_21
   + x_0_24 + x_0_25 + x_0_26 + x_0_29 + x_0_30 + x_0_31 + x_0_32 + x_0_33
   + x_0_34 + x_0_35 + x_0_36 + x_0_37 + x_0_38 + x_0_39 + x_0_40 + x_0_41
   + x_0_45 + x_0_47 + x_0_49 = 0
 c_2_1: - 2 y_1 + x_0_1 + x_1_2 + x_1_3 + x_1_4 + x_1_7 + x_1_8 + x_1_10
   + x_1_11 + x_1_12 + x_1_13 + x_1_14 + x_1_15 + x_1_17 + x_1_19 + x_1_20
   + x_1_21 + x_1_23 + x_1_24 + x_1_25 + x_1_26 + x_1_27 + x_1_28 + x_1_29
   + x_1_30 + x_1_31 + x_1_33 + x_1_34 + x_1_35 + x_1_36 + x_1_38 + x_1_41
   + x_1_42 + x_1_43 + x_1_44 + x_1_45 + x_1_46 + x_1_48 = 0
 c_2_2: - 2 y_2 + x_0_2 + x_1_2 + x_2_3 + x_2_5 + x_2_6 + x_2_7 + x_2_8
   + x_2_10 + x_2_14 + x_2_15 + x_2_16 + x_2_17 + x_2_18 + x_2_19 + x_2_21
   + x_2_23 + x_2_24 + x_2_25 + x_2_26 + x_2_27 + x_2_32 + x_2_33 + x_2_34
   + x_2_35 + x_2_36 + x_2_37 + x_2_38 + x_2_39 + x_2_43 + x_2_45 + x_2_46
   + x_2_47 + x_2_48 + x_2_49 = 0
 c_2_3: - 2 y_3 + x_0_3 + x_1_3 + x_2_3 + x_3_4 + x_3_7 + x_3_9 + x_3_13
   + x_3_14 + x_3_17 + x_3_19 + x_3_20 + x_3_22 + x_3_24 + x_3_25 + x_3_27
   + x_3_28 + x_3_29 + x_3_30 + x_3_34 + x_3_35 + x_3_37 + x_3_39 + x_3_41
   + x_3_45 + x_3_46 + x_3_48 = 0
 c_2_4: - 2 y_4 + x_0_4 + x_1_4 + x_3_4 + x_4_6 + x_4_7 + x_4_8 + x_4_10
   + x_4_11 + x_4_13 + x_4_14 + x_4_15 + x_4_16 + x_4_19 + x_4_20 + x_4_21
   + x_4_23 + x_4_24 + x_4_25 + x_4_26 + x_4_27 + x_4_29 + x_4_30 + x_4_32
   + x_4_33 + x_4_36 + x_4_37 + x_4_38 + x_4_39 + x_4_40 + x_4_41 + x_4_42
   + x_4_44 + x_4_45 + x_4_46 + x_4_47 + x_4_49 = 0
 c_2_5: - 2 y_5 + x_0_5 + x_2_5 + x_5_6 + x_5_7 + x_5_8 + x_5_10 + x_5_11
   + x_5_12 + x_5_13 + x_5_14 + x_5_15 + x_5_17 + x_5_19 + x_5_20 + x_5_23
   + x_5_24 + x_5_25 + x_5_26 + x_5_27 + x_5_28 + x_5_30 + x_5_32 + x_5_34
   + x_5_35 + x_5_36 + x_5_37 + x_5_38 + x_5_39 + x_5_41 + x_5_42 + x_5_44
   + x_5_45 + x_5_46 + x_5_47 + x_5_49 = 0
 c_2_6: - 2 y_6 + x_2_6 + x_4_6 + x_5_6 + x_6_9 + x_6_10 + x_6_11 + x_6_12
   + x_6_13 + x_6_16 + x_6_17 + x_6_18 + x_6_20 + x_6_22 + x_6_23 + x_6_27
   + x_6_28 + x_6_29 + x_6_32 + x_6_33 + x_6_35 + x_6_36 + x_6_37 + x_6_38
   + x_6_39 + x_6_40 + x_6_41 + x_6_42 + x_6_44 + x_6_45 + x_6_46 + x_6_49
   = 0
 c_2_7: - 2 y_7 + x_1_7 + x_2_7 + x_3_7 + x_4_7 + x_5_7 + x_7_8 + x_7_9
   + x_7_10 + x_7_11 + x_7_13 + x_7_14 + x_7_15 + x_7_16 + x_7_17 + x_7_20
   + x_7_22 + x_7_26 + x_7_27 + x_7_28 + x_7_29 + x_7_30 + x_7_32 + x_7_35
   + x_7_36 + x_7_37 + x_7_38 + x_7_39 + x_7_40 + x_7_41 + x_7_43 + x_7_45
   + x_7_47 + x_7_48 + x_7_49 = 0
 c_2_8: - 2 y_8 + x_0_8 + x_1_8 + x_2_8 + x_4_8 + x_5_8 + x_7_8 + x_8_9
   + x_8_12 + x_8_13 + x_8_14 + x_8_15 + x_8_16 + x_8_17 + x_8_18 + x_8_19
   + x_8_21 + x_8_22 + x_8_24 + x_8_25 + x_8_27 + x_8_28 + x_8_29 + x_8_30
   + x_8_31 + x_8_32 + x_8_34 + x_8_36 + x_8_37 + x_8_39 + x_8_40 + x_8_41
   + x_8_42 + x_8_43 + x_8_44 + x_8_45 + x_8_47 + x_8_48 + x_8_49 = 0
 c_2_9: - 2 y_9 + x_0_9 + x_3_9 + x_6_9 + x_7_9 + x_8_9 + x_9_11 + x_9_12
   + x_9_13 + x_9_14 + x_9_16 + x_9_17 + x_9_18 + x_9_19 + x_9_22 + x_9_23
   + x_9_24 + x_9_25 + x_9_26 + x_9_27 + x_9_28 + x_9_29 + x_9_30 + x_9_32
   + x_9_33 + x_9_34 + x_9_35 + x_9_36 + x_9_37 + x_9_39 + x_9_41 + x_9_42
   + x_9_43 + x_9_45 + x_9_47 + x_9_48 + x_9_49 = 0
 c_2_10: - 2 y_10 + x_1_10 + x_2_10 + x_4_10 + x_5_10 + x_6_10 + x_7_10
   + x_10_12 + x_10_13 + x_10_14 + x_10_16 + x_10_17 + x_10_18 + x_10_19
   + x_10_20 + x_10_22 + x_10_25 + x_10_26 + x_10_27 + x_10_28 + x_10_29
   + x_10_30 + x_10_31 + x_10_32 + x_10_33 + x_10_34 + x_10_37 + x_10_38
   + x_10_41 + x_10_43 + x_10_44 + x_10_45 + x_10_47 + x_10_48 = 0
 c_2_11: - 2 y_11 + x_1_11 + x_4_11 + x_5_11 + x_6_11 + x_7_11 + x_9_11
   + x_11_12 + x_11_13 + x_11_14 + x_11_15 + x_11_19 + x_11_22 + x_11_23
   + x_11_24 + x_11_25 + x_11_26 + x_11_28 + x_11_29 + x_11_30 + x_11_32
   + x_11_33 + x_11_34 + x_11_37 + x_11_39 + x_11_40 + x_11_41 + x_11_42
   + x_11_43 + x_11_44 + x_11_47 + x_11_48 + x_11_49 = 0
 c_2_12: - 2 y_12 + x_0_12 + x_1_12 + x_5_12 + x_6_12 + x_8_12 + x_9_12
   + x_10_12 + x_11_12 + x_12_15 + x_12_16 + x_12_18 + x_12_19 + x_12_20
   + x_12_21 + x_12_23 + x_12_24 + x_12_26 + x_12_28 + x_12_29 + x_12_31
   + x_12_32 + x_12_33 + x_12_34 + x_12_35 + x_12_36 + x_12_37 + x_12_38
   + x_12_39 + x_12_41 + x_12_42 + x_12_43 + x_12_44 + x_12_47 + x_12_48
   = 0
 c_2_13: - 2 y_13 + x_0_13 + x_1_13 + x_3_13 + x_4_13 + x_5_13 + x_6_13
   + x_7_13 + x_8_13 + x_9_13 + x_10_13 + x_11_13 + x_13_15 + x_13_16
   + x_13_18 + x_13_19 + x_13_20 + x_13_21 + x_13_23 + x_13_24 + x_13_25
   + x_13_27 + x_13_28 + x_13_30 + x_13_32 + x_13_33 + x_13_34 + x_13_35
   + x_13_36 + x_13_37 + x_13_38 + x_13_39 + x_13_40 + x_13_41 + x_13_42
   + x_13_43 + x_13_44 + x_13_45 + x_13_46 + x_13_47 + x_13_49 = 0
 c_2_14: - 2 y_14 + x_0_14 + x_1_14 + x_2_14 + x_3_14 + x_4_14 + x_5_14
   + x_7_14 + x_8_14 + x_9_14 + x_10_14 + x_11_14 + x_14_15 + x_14_16
   + x_14_17 + x_14_18 + x_14_19 + x_14_20 + x_14_23 + x_14_24 + x_14_25
   + x_14_28 + x_14_29 + x_14_30 + x_14_31 + x_14_34 + x_14_35 + x_14_36
   + x_14_37 + x_14_38 + x_14_39 + x_14_40 + x_14_42 + x_14_43 + x_14_44
   + x_14_47 + x_14_48 + x_14_49 = 0
 c_2_15: - 2 y_15 + x_1_15 + x_2_15 + x_4_15 + x_5_15 + x_7_15 + x_8_15
   + x_11_15 + x_12_15 + x_13_15 + x_14_15 + x_15_16 + x_15_17 + x_15_19
   + x_15_20 + x_15_22 + x_15_23 + x_15_25 + x_15_26 + x_15_27 + x_15_28
   + x_15_29 + x_15_30 + x_15_31 + x_15_34 + x_15_35 + x_15_36 + x_15_37
   + x_15_38 + x_15_40 + x_15_45 + x_15_46 + x_15_47 + x_15_48 = 0
 c_2_16: - 2 y_16 + x_2_16 + x_4_16 + x_6_16 + x_7_16 + x_8_16 + x_9_16
   + x_10_16 + x_12_16 + x_13_16 + x_14_16 + x_15_16 + x_16_17 + x_16_18
   + x_16_20 + x_16_22 + x_16_23 + x_16_25 + x_16_26 + x_16_28 + x_16_29
   + x_16_30 + x_16_32 + x_16_36 + x_16_37 + x_16_38 + x_16_39 + x_16_40
   + x_16_41 + x_16_42 + x_16_43 + x_16_44 + x_16_45 + x_16_47 + x_16_48
   = 0
 c_2_17: - 2 y_17 + x_0_17 + x_1_17 + x_2_17 + x_3_17 + x_5_17 + x_6_17
   + x_7_17 + x_8_17 + x_9_17 + x_10_17 + x_14_17 + x_15_17 + x_16_17
   + x_17_18 + x_17_19 + x_17_20 + x_17_21 + x_17_22 + x_17_23 + x_17_24
   + x_17_26 + x_17_27 + x_17_28 + x_17_29 + x_17_31 + x_17_32 + x_17_33
   + x_17_34 + x_17_35 + x_17_37 + x_17_38 + x_17_39 + x_17_40 + x_17_42
   + x_17_43 + x_17_44 + x_17_45 + x_17_47 + x_17_49 = 0
 c_2_18: - 2 y_18 + x_0_18 + x_2_18 + x_6_18 + x_8_18 + x_9_18 + x_10_18
   + x_12_18 + x_13_18 + x_14_18 + x_16_18 + x_17_18 + x_18_20 + x_18_21
   + x_18_22 + x_18_23 + x_18_24 + x_18_25 + x_18_26 + x_18_27 + x_18_28
   + x_18_29 + x_18_30 + x_18_33 + x_18_34 + x_18_35 + x_18_36 + x_18_37
   + x_18_38 + x_18_39 + x_18_41 + x_18_42 + x_18_43 + x_18_45 + x_18_48
   + x_18_49 = 0
 c_2_19: - 2 y_19 + x_0_19 + x_1_19 + x_2_19 + x_3_19 + x_4_19 + x_5_19
   + x_8_19 + x_9_19 + x_10_19 + x_11_19 + x_12_19 + x_13_19 + x_14_19
   + x_15_19 + x_17_19 + x_19_21 + x_19_23 + x_19_25 + x_19_27 + x_19_28
   + x_19_30 + x_19_31 + x_19_33 + x_19_34 + x_19_36 + x_19_38 + x_19_39
   + x_19_40 + x_19_42 + x_19_44 + x_19_46 + x_19_47 + x_19_48 + x_19_49
   + 2 x_22_19 = 0
 c_2_20: - 2 y_20 + x_0_20 + x_1_20 + x_3_20 + x_4_20 + x_5_20 + x_6_20
   + x_7_20 + x_10_20 + x_12_20 + x_13_20 + x_14_20 + x_15_20 + x_16_20
   + x_17_20 + x_18_20 + x_20_21 + x_20_22 + x_20_24 + x_20_26 + x_20_27
   + x_20_28 + x_20_29 + x_20_30 + x_20_31 + x_20_33 + x_20_34 + x_20_35
   + x_20_36 + x_20_38 + x_20_39 + x_20_40 + x_20_44 + x_20_45 + x_20_46
   + x_20_47 + x_20_48 = 0
 c_2_21: - 2 y_21 + x_0_21 + x_1_21 + x_2_21 + x_4_21 + x_8_21 + x_12_21
   + x_13_21 + x_17_21 + x_18_21 + x_19_21 + x_20_21 + x_21_22 + x_21_23
   + x_21_25 + x_21_26 + x_21_27 + x_21_28 + x_21_29 + x_21_31 + x_21_32
   + x_21_33 + x_21_34 + x_21_36 + x_21_37 + x_21_38 + x_21_39 + x_21_40
   + x_21_41 + x_21_43 + x_21_44 + x_21_46 + x_21_48 = 0
 c_2_22: - 2 y_22 + x_3_22 + x_6_22 + x_7_22 + x_8_22 + x_9_22 + x_10_22
   + x_11_22 + x_15_22 + x_16_22 + x_17_22 + x_18_22 + x_20_22 + x_21_22
   + 2 x_22_19 + x_22_23 + x_22_25 + x_22_26 + x_22_27 + x_22_28 + x_22_30
   + x_22_31 + x_22_32 + x_22_35 + x_22_36 + x_22_37 + x_22_38 + x_22_39
   + x_22_41 + x_22_45 + x_22_49 = 0
 c_2_23: - 2 y_23 + x_1_23 + x_2_23 + x_4_23 + x_5_23 + x_6_23 + x_9_23
   + x_11_23 + x_12_23 + x_13_23 + x_14_23 + x_15_23 + x_16_23 + x_17_23
   + x_18_23 + x_19_23 + x_21_23 + x_22_23 + x_23_24 + x_23_26 + x_23_27
   + x_23_28 + x_23_29 + x_23_30 + x_23_31 + x_23_34 + x_23_35 + x_23_36
   + x_23_39 + x_23_41 + x_23_42 + x_23_43 + x_23_44 + x_23_45 + x_23_47
   + x_23_48 = 0
 c_2_24: - 2 y_24 + x_0_24 + x_1_24 + x_2_24 + x_3_24 + x_4_24 + x_5_24
   + x_8_24 + x_9_24 + x_11_24 + x_12_24 + x_13_24 + x_14_24 + x_17_24
   + x_18_24 + x_20_24 + x_23_24 + x_24_25 + x_24_27 + x_24_28 + x_24_29
   + x_24_31 + x_24_32 + x_24_33 + x_24_35 + x_24_36 + x_24_37 + x_24_38
   + x_24_39 + x_24_40 + x_24_41 + x_24_42 + x_24_43 + x_24_45 + x_24_46
   + x_24_47 + x_24_48 + x_24_49 = 0
 c_2_25: - 2 y_25 + x_0_25 + x_1_25 + x_2_25 + x_3_25 + x_4_25 + x_5_25
   + x_8_25 + x_9_25 + x_10_25 + x_11_25 + x_13_25 + x_14_25 + x_15_25
   + x_16_25 + x_18_25 + x_19_25 + x_21_25 + x_22_25 + x_24_25 + x_25_27
   + x_25_29 + x_25_30 + x_25_32 + x_25_33 + x_25_34 + x_25_35 + x_25_37
   + x_25_39 + x_25_40 + x_25_41 + x_25_42 + x_25_44 + x_25_45 + x_25_46
   + x_25_47 + x_25_48 + x_25_49 = 0
 c_2_26: - 2 y_26 + x_0_26 + x_1_26 + x_2_26 + x_4_26 + x_5_26 + x_7_26
   + x_9_26 + x_10_26 + x_11_26 + x_12_26 + x_15_26 + x_16_26 + x_17_26
   + x_18_26 + x_20_26 + x_21_26 + x_22_26 + x_23_26 + x_26_27 + x_26_28
   + x_26_29 + x_26_31 + x_26_32 + x_26_33 + x_26_35 + x_26_36 + x_26_37
   + x_26_38 + x_26_40 + x_26_43 + x_26_44 + x_26_45 + x_26_46 + x_26_47
   + x_26_48 + x_26_49 = 0
 c_2_27: - 2 y_27 + x_1_27 + x_2_27 + x_3_27 + x_4_27 + x_5_27 + x_6_27
   + x_7_27 + x_8_27 + x_9_27 + x_10_27 + x_13_27 + x_15_27 + x_17_27
   + x_18_27 + x_19_27 + x_20_27 + x_21_27 + x_22_27 + x_23_27 + x_24_27
   + x_25_27 + x_26_27 + x_27_28 + x_27_29 + x_27_30 + x_27_31 + x_27_32
   + x_27_34 + x_27_36 + x_27_38 + x_27_39 + x_27_40 + x_27_41 + x_27_43
   + x_27_48 = 0
 c_2_28: - 2 y_28 + x_1_28 + x_3_28 + x_5_28 + x_6_28 + x_7_28 + x_8_28
   + x_9_28 + x_10_28 + x_11_28 + x_12_28 + x_13_28 + x_14_28 + x_15_28
   + x_16_28 + x_17_28 + x_18_28 + x_19_28 + x_20_28 + x_21_28 + x_22_28
   + x_23_28 + x_24_28 + x_26_28 + x_27_28 + x_28_29 + x_28_30 + x_28_31
   + x_28_32 + x_28_34 + x_28_36 + x_28_37 + x_28_38 + x_28_39 + x_28_40
   + x_28_43 + x_28_45 + x_28_48 + x_28_49 = 0
 c_2_29: - 2 y_29 + x_0_29 + x_1_29 + x_3_29 + x_4_29 + x_6_29 + x_7_29
   + x_8_29 + x_9_29 + x_10_29 + x_11_29 + x_12_29 + x_14_29 + x_15_29
   + x_16_29 + x_17_29 + x_18_29 + x_20_29 + x_21_29 + x_23_29 + x_24_29
   + x_25_29 + x_26_29 + x_27_29 + x_28_29 + x_29_31 + x_29_33 + x_29_34
   + x_29_36 + x_29_38 + x_29_39 + x_29_40 + x_29_41 + x_29_42 + x_29_43
   + x_29_44 + x_29_46 + x_29_47 + x_29_48 + x_29_49 = 0
 c_2_30: - 2 y_30 + x_0_30 + x_1_30 + x_3_30 + x_4_30 + x_5_30 + x_7_30
   + x_8_30 + x_9_30 + x_10_30 + x_11_30 + x_13_30 + x_14_30 + x_15_30
   + x_16_30 + x_18_30 + x_19_30 + x_20_30 + x_22_30 + x_23_30 + x_25_30
   + x_27_30 + x_28_30 + x_30_31 + x_30_35 + x_30_38 + x_30_39 + x_30_40
   + x_30_42 + x_30_43 + x_30_44 + x_30_45 + x_30_47 + x_30_49 = 0
 c_2_31: - 2 y_31 + x_0_31 + x_1_31 + x_8_31 + x_10_31 + x_12_31 + x_14_31
   + x_15_31 + x_17_31 + x_19_31 + x_20_31 + x_21_31 + x_22_31 + x_23_31
   + x_24_31 + x_26_31 + x_27_31 + x_28_31 + x_29_31 + x_30_31 + x_31_32
   + x_31_35 + x_31_36 + x_31_38 + x_31_39 + x_31_40 + x_31_41 + x_31_42
   + x_31_44 + x_31_45 + x_31_46 + x_31_48 + x_31_49 = 0
 c_2_32: - 2 y_32 + x_0_32 + x_2_32 + x_4_32 + x_5_32 + x_6_32 + x_7_32
   + x_8_32 + x_9_32 + x_10_32 + x_11_32 + x_12_32 + x_13_32 + x_16_32
   + x_17_32 + x_21_32 + x_22_32 + x_24_32 + x_25_32 + x_26_32 + x_27_32
   + x_28_32 + x_31_32 + x_32_35 + x_32_37 + x_32_39 + x_32_40 + x_32_44
   + x_32_45 + x_32_46 = 0
 c_2_33: - 2 y_33 + x_0_33 + x_1_33 + x_2_33 + x_4_33 + x_6_33 + x_9_33
   + x_10_33 + x_11_33 + x_12_33 + x_13_33 + x_17_33 + x_18_33 + x_19_33
   + x_20_33 + x_21_33 + x_24_33 + x_25_33 + x_26_33 + x_29_33 + x_33_34
   + x_33_38 + x_33_39 + x_33_40 + x_33_41 + x_33_42 + x_33_43 + x_33_44
   + x_33_45 + x_33_46 + x_33_47 = 0
 c_2_34: - 2 y_34 + x_0_34 + x_1_34 + x_2_34 + x_3_34 + x_5_34 + x_8_34
   + x_9_34 + x_10_34 + x_11_34 + x_12_34 + x_13_34 + x_14_34 + x_15_34
   + x_17_34 + x_18_34 + x_19_34 + x_20_34 + x_21_34 + x_23_34 + x_25_34
   + x_27_34 + x_28_34 + x_29_34 + x_33_34 + x_34_35 + x_34_37 + x_34_38
   + x_34_39 + x_34_40 + x_34_41 + x_34_44 + x_34_46 + x_34_47 + x_34_48
   = 0
 c_2_35: - 2 y_35 + x_0_35 + x_1_35 + x_2_35 + x_3_35 + x_5_35 + x_6_35
   + x_7_35 + x_9_35 + x_12_35 + x_13_35 + x_14_35 + x_15_35 + x_17_35
   + x_18_35 + x_20_35 + x_22_35 + x_23_35 + x_24_35 + x_25_35 + x_26_35
   + x_30_35 + x_31_35 + x_32_35 + x_34_35 + x_35_38 + x_35_40 + x_35_41
   + x_35_42 + x_35_45 + x_35_46 + x_35_47 + x_35_49 = 0
 c_2_36: - 2 y_36 + x_0_36 + x_1_36 + x_2_36 + x_4_36 + x_5_36 + x_6_36
   + x_7_36 + x_8_36 + x_9_36 + x_12_36 + x_13_36 + x_14_36 + x_15_36
   + x_16_36 + x_18_36 + x_19_36 + x_20_36 + x_21_36 + x_22_36 + x_23_36
   + x_24_36 + x_26_36 + x_27_36 + x_28_36 + x_29_36 + x_31_36 + x_36_37
   + x_36_38 + x_36_40 + x_36_41 + x_36_42 + x_36_45 + x_36_47 + x_36_48
   + x_36_49 = 0
 c_2_37: - 2 y_37 + x_0_37 + x_2_37 + x_3_37 + x_4_37 + x_5_37 + x_6_37
   + x_7_37 + x_8_37 + x_9_37 + x_10_37 + x_11_37 + x_12_37 + x_13_37
   + x_14_37 + x_15_37 + x_16_37 + x_17_37 + x_18_37 + x_21_37 + x_22_37
   + x_24_37 + x_25_37 + x_26_37 + x_28_37 + x_32_37 + x_34_37 + x_36_37
   + x_37_38 + x_37_39 + x_37_41 + x_37_42 + x_37_47 + x_37_48 + x_37_49
   = 0
 c_2_38: - 2 y_38 + x_0_38 + x_1_38 + x_2_38 + x_4_38 + x_5_38 + x_6_38
   + x_7_38 + x_10_38 + x_12_38 + x_13_38 + x_14_38 + x_15_38 + x_16_38
   + x_17_38 + x_18_38 + x_19_38 + x_20_38 + x_21_38 + x_22_38 + x_24_38
   + x_26_38 + x_27_38 + x_28_38 + x_29_38 + x_30_38 + x_31_38 + x_33_38
   + x_34_38 + x_35_38 + x_36_38 + x_37_38 + x_38_39 + x_38_40 + x_38_41
   + x_38_42 + x_38_44 + x_38_45 + x_38_46 + x_38_47 + x_38_49 = 0
 c_2_39: - 2 y_39 + x_0_39 + x_2_39 + x_3_39 + x_4_39 + x_5_39 + x_6_39
   + x_7_39 + x_8_39 + x_9_39 + x_11_39 + x_12_39 + x_13_39 + x_14_39
   + x_16_39 + x_17_39 + x_18_39 + x_19_39 + x_20_39 + x_21_39 + x_22_39
   + x_23_39 + x_24_39 + x_25_39 + x_27_39 + x_28_39 + x_29_39 + x_30_39
   + x_31_39 + x_32_39 + x_33_39 + x_34_39 + x_37_39 + x_38_39 + x_39_41
   + x_39_44 + x_39_45 + x_39_46 + x_39_47 + x_39_48 + x_39_49 = 0
 c_2_40: - 2 y_40 + x_0_40 + x_4_40 + x_6_40 + x_7_40 + x_8_40 + x_11_40
   + x_13_40 + x_14_40 + x_15_40 + x_16_40 + x_17_40 + x_19_40 + x_20_40
   + x_21_40 + x_24_40 + x_25_40 + x_26_40 + x_27_40 + x_28_40 + x_29_40
   + x_30_40 + x_31_40 + x_32_40 + x_33_40 + x_34_40 + x_35_40 + x_36_40
   + x_38_40 + x_40_41 + x_40_42 + x_40_43 + x_40_44 + x_40_45 + x_40_47
   + x_40_48 + x_40_49 = 0
 c_2_41: - 2 y_41 + x_0_41 + x_1_41 + x_3_41 + x_4_41 + x_5_41 + x_6_41
   + x_7_41 + x_8_41 + x_9_41 + x_10_41 + x_11_41 + x_12_41 + x_13_41
   + x_16_41 + x_18_41 + x_21_41 + x_22_41 + x_23_41 + x_24_41 + x_25_41
   + x_27_41 + x_29_41 + x_31_41 + x_33_41 + x_34_41 + x_35_41 + x_36_41
   + x_37_41 + x_38_41 + x_39_41 + x_40_41 + x_41_42 + x_41_44 + x_41_45
   + x_41_46 + x_41_48 + x_41_49 = 0
 c_2_42: - 2 y_42 + x_1_42 + x_4_42 + x_5_42 + x_6_42 + x_8_42 + x_9_42
   + x_11_42 + x_12_42 + x_13_42 + x_14_42 + x_16_42 + x_17_42 + x_18_42
   + x_19_42 + x_23_42 + x_24_42 + x_25_42 + x_29_42 + x_30_42 + x_31_42
   + x_33_42 + x_35_42 + x_36_42 + x_37_42 + x_38_42 + x_40_42 + x_41_42
   + x_42_44 + x_42_45 + x_42_46 + x_42_48 = 0
 c_2_43: - 2 y_43 + x_1_43 + x_2_43 + x_7_43 + x_8_43 + x_9_43 + x_10_43
   + x_11_43 + x_12_43 + x_13_43 + x_14_43 + x_16_43 + x_17_43 + x_18_43
   + x_21_43 + x_23_43 + x_24_43 + x_26_43 + x_27_43 + x_28_43 + x_29_43
   + x_30_43 + x_33_43 + x_40_43 + x_43_44 + x_43_46 + x_43_47 = 0
 c_2_44: - 2 y_44 + x_1_44 + x_4_44 + x_5_44 + x_6_44 + x_8_44 + x_10_44
   + x_11_44 + x_12_44 + x_13_44 + x_14_44 + x_16_44 + x_17_44 + x_19_44
   + x_20_44 + x_21_44 + x_23_44 + x_25_44 + x_26_44 + x_29_44 + x_30_44
   + x_31_44 + x_32_44 + x_33_44 + x_34_44 + x_38_44 + x_39_44 + x_40_44
   + x_41_44 + x_42_44 + x_43_44 + x_44_45 + x_44_49 = 0
 c_2_45: - 2 y_45 + x_0_45 + x_1_45 + x_2_45 + x_3_45 + x_4_45 + x_5_45
   + x_6_45 + x_7_45 + x_8_45 + x_9_45 + x_10_45 + x_13_45 + x_15_45
   + x_16_45 + x_17_45 + x_18_45 + x_20_45 + x_22_45 + x_23_45 + x_24_45
   + x_25_45 + x_26_45 + x_28_45 + x_30_45 + x_31_45 + x_32_45 + x_33_45
   + x_35_45 + x_36_45 + x_38_45 + x_39_45 + x_40_45 + x_41_45 + x_42_45
   + x_44_45 + x_45_48 = 0
 c_2_46: - 2 y_46 + x_1_46 + x_2_46 + x_3_46 + x_4_46 + x_5_46 + x_6_46
   + x_13_46 + x_15_46 + x_19_46 + x_20_46 + x_21_46 + x_24_46 + x_25_46
   + x_26_46 + x_29_46 + x_31_46 + x_32_46 + x_33_46 + x_34_46 + x_35_46
   + x_38_46 + x_39_46 + x_41_46 + x_42_46 + x_43_46 + x_46_47 + x_46_49
   = 0
 c_2_47: - 2 y_47 + x_0_47 + x_2_47 + x_4_47 + x_5_47 + x_7_47 + x_8_47
   + x_9_47 + x_10_47 + x_11_47 + x_12_47 + x_13_47 + x_14_47 + x_15_47
   + x_16_47 + x_17_47 + x_19_47 + x_20_47 + x_23_47 + x_24_47 + x_25_47
   + x_26_47 + x_29_47 + x_30_47 + x_33_47 + x_34_47 + x_35_47 + x_36_47
   + x_37_47 + x_38_47 + x_39_47 + x_40_47 + x_43_47 + x_46_47 + x_47_48
   + x_47_49 = 0
 c_2_48: - 2 y_48 + x_1_48 + x_2_48 + x_3_48 + x_7_48 + x_8_48 + x_9_48
   + x_10_48 + x_11_48 + x_12_48 + x_14_48 + x_15_48 + x_16_48 + x_18_48
   + x_19_48 + x_20_48 + x_21_48 + x_23_48 + x_24_48 + x_25_48 + x_26_48
   + x_27_48 + x_28_48 + x_29_48 + x_31_48 + x_34_48 + x_36_48 + x_37_48
   + x_39_48 + x_40_48 + x_41_48 + x_42_48 + x_45_48 + x_47_48 + x_48_49
   = 0
 c_2_49: - 2 y_49 + x_0_49 + x_2_49 + x_4_49 + x_5_49 + x_6_49 + x_7_49
   + x_8_49 + x_9_49 + x_11_49 + x_13_49 + x_14_49 + x_17_49 + x_18_49
   + x_19_49 + x_22_49 + x_24_49 + x_25_49 + x_26_49 + x_28_49 + x_29_49
   + x_30_49 + x_31_49 + x_35_49 + x_36_49 + x_37_49 + x_38_49 + x_39_49
   + x_40_49 + x_41_49 + x_44_49 + x_46_49 + x_47_49 + x_48_49 = 0
Bounds
 Constant = 1
Binaries
 y_0 y_1 y_2 y_3 y_4 y_5 y_6 y_7 y_8 y_9 y_10 y_11 y_12 y_13 y_14 y_15 y_16
 y_17 y_18 y_19 y_20 y_21 y_22 y_23 y_24 y_25 y_26 y_27 y_28 y_29 y_30 y_31
 y_32 y_33 y_34 y_35 y_36 y_37 y_38 y_39 y_40 y_41 y_42 y_43 y_44 y_45 y_46
 y_47 y_48 y_49 x_0_1 x_0_2 x_0_3 x_0_4 x_0_5 x_0_8 x_0_9 x_0_12 x_0_13
 x_0_14 x_0_17 x_0_18 x_0_19 x_0_20 x_0_21 x_0_24 x_0_25 x_0_26 x_0_29
 x_0_30 x_0_31 x_0_32 x_0_33 x_0_34 x_0_35 x_0_36 x_0_37 x_0_38 x_0_39
 x_0_40 x_0_41 x_0_45 x_0_47 x_0_49 x_1_2 x_1_3 x_1_4 x_1_7 x_1_8 x_1_10
 x_1_11 x_1_12 x_1_13 x_1_14 x_1_15 x_1_17 x_1_19 x_1_20 x_1_21 x_1_23
 x_1_24 x_1_25 x_1_26 x_1_27 x_1_28 x_1_29 x_1_30 x_1_31 x_1_33 x_1_34
 x_1_35 x_1_36 x_1_38 x_1_41 x_1_42 x_1_43 x_1_44 x_1_45 x_1_46 x_1_48
 x_2_3 x_2_5 x_2_6 x_2_7 x_2_8 x_2_10 x_2_14 x_2_15 x_2_16 x_2_17 x_2_18
 x_2_19 x_2_21 x_2_23 x_2_24 x_2_25 x_2_26 x_2_27 x_2_32 x_2_33 x_2_34
 x_2_35 x_2_36 x_2_37 x_2_38 x_2_39 x_2_43 x_2_45 x_2_46 x_2_47 x_2_48
 x_2_49 x_3_4 x_3_7 x_3_9 x_3_13 x_3_14 x_3_17 x_3_19 x_3_20 x_3_22 x_3_24
 x_3_25 x_3_27 x_3_28 x_3_29 x_3_30 x_3_34 x_3_35 x_3_37 x_3_39 x_3_41
 x_3_45 x_3_46 x_3_48 x_4_6 x_4_7 x_4_8 x_4_10 x_4_11 x_4_13 x_4_14 x_4_15
 x_4_16 x_4_19 x_4_20 x_4_21 x_4_23 x_4_24 x_4_25 x_4_26 x_4_27 x_4_29
 x_4_30 x_4_32 x_4_33 x_4_36 x_4_37 x_4_38 x_4_39 x_4_40 x_4_41 x_4_42
 x_4_44 x_4_45 x_4_46 x_4_47 x_4_49 x_5_6 x_5_7 x_5_8 x_5_10 x_5_11 x_5_12
 x_5_13 x_5_14 x_5_15 x_5_17 x_5_19 x_5_20 x_5_23 x_5_24 x_5_25 x_5_26
 x_5_27 x_5_28 x_5_30 x_5_32 x_5_34 x_5_35 x_5_36 x_5_37 x_5_38 x_5_39
 x_5_41 x_5_42 x_5_44 x_5_45 x_5_46 x_5_47 x_5_49 x_6_9 x_6_10 x_6_11
 x_6_12 x_6_13 x_6_16 x_6_17 x_6_18 x_6_20 x_6_22 x_6_23 x_6_27 x_6_28
 x_6_29 x_6_32 x_6_33 x_6_35 x_6_36 x_6_37 x_6_38 x_6_39 x_6_40 x_6_41
 x_6_42 x_6_44 x_6_45 x_6_46 x_6_49 x_7_8 x_7_9 x_7_10 x_7_11 x_7_13 x_7_14
 x_7_15 x_7_16 x_7_17 x_7_20 x_7_22 x_7_26 x_7_27 x_7_28 x_7_29 x_7_30
 x_7_32 x_7_35 x_7_36 x_7_37 x_7_38 x_7_39 x_7_40 x_7_41 x_7_43 x_7_45
 x_7_47 x_7_48 x_7_49 x_8_9 x_8_12 x_8_13 x_8_14 x_8_15 x_8_16 x_8_17
 x_8_18 x_8_19 x_8_21 x_8_22 x_8_24 x_8_25 x_8_27 x_8_28 x_8_29 x_8_30
 x_8_31 x_8_32 x_8_34 x_8_36 x_8_37 x_8_39 x_8_40 x_8_41 x_8_42 x_8_43
 x_8_44 x_8_45 x_8_47 x_8_48 x_8_49 x_9_11 x_9_12 x_9_13 x_9_14 x_9_16
 x_9_17 x_9_18 x_9_19 x_9_22 x_9_23 x_9_24 x_9_25 x_9_26 x_9_27 x_9_28
 x_9_29 x_9_30 x_9_32 x_9_33 x_9_34 x_9_35 x_9_36 x_9_37 x_9_39 x_9_41
 x_9_42 x_9_43 x_9_45 x_9_47 x_9_48 x_9_49 x_10_12 x_10_13 x_10_14 x_10_16
 x_10_17 x_10_18 x_10_19 x_10_20 x_10_22 x_10_25 x_10_26 x_10_27 x_10_28
 x_10_29 x_10_30 x_10_31 x_10_32 x_10_33 x_10_34 x_10_37 x_10_38 x_10_41
 x_10_43 x_10_44 x_10_45 x_10_47 x_10_48 x_11_12 x_11_13 x_11_14 x_11_15
 x_11_19 x_11_22 x_11_23 x_11_24 x_11_25 x_11_26 x_11_28 x_11_29 x_11_30
 x_11_32 x_11_33 x_11_34 x_11_37 x_11_39 x_11_40 x_11_41 x_11_42 x_11_43
 x_11_44 x_11_47 x_11_48 x_11_49 x_12_15 x_12_16 x_12_18 x_12_19 x_12_20
 x_12_21 x_12_23 x_12_24 x_12_26 x_12_28 x_12_29 x_12_31 x_12_32 x_12_33
 x_12_34 x_12_35 x_12_36 x_12_37 x_12_38 x_12_39 x_12_41 x_12_42 x_12_43
 x_12_44 x_12_47 x_12_48 x_13_15 x_13_16 x_13_18 x_13_19 x_13_20 x_13_21
 x_13_23 x_13_24 x_13_25 x_13_27 x_13_28 x_13_30 x_13_32 x_13_33 x_13_34
 x_13_35 x_13_36 x_13_37 x_13_38 x_13_39 x_13_40 x_13_41 x_13_42 x_13_43
 x_13_44 x_13_45 x_13_46 x_13_47 x_13_49 x_14_15 x_14_16 x_14_17 x_14_18
 x_14_19 x_14_20 x_14_23 x_14_24 x_14_25 x_14_28 x_14_29 x_14_30 x_14_31
 x_14_34 x_14_35 x_14_36 x_14_37 x_14_38 x_14_39 x_14_40 x_14_42 x_14_43
 x_14_44 x_14_47 x_14_48 x_14_49 x_15_16 x_15_17 x_15_19 x_15_20 x_15_22
 x_15_23 x_15_25 x_15_26 x_15_27 x_15_28 x_15_29 x_15_30 x_15_31 x_15_34
 x_15_35 x_15_36 x_15_37 x_15_38 x_15_40 x_15_45 x_15_46 x_15_47 x_15_48
 x_16_17 x_16_18 x_16_20 x_16_22 x_16_23 x_16_25 x_16_26 x_16_28 x_16_29
 x_16_30 x_16_32 x_16_36 x_16_37 x_16_38 x_16_39 x_16_40 x_16_41 x_16_42
 x_16_43 x_16_44 x_16_45 x_16_47 x_16_48 x_17_18 x_17_19 x_17_20 x_17_21
 x_17_22 x_17_23 x_17_24 x_17_26 x_17_27 x_17_28 x_17_29 x_17_31 x_17_32
 x_17_33 x_17_34 x_17_35 x_17_37 x_17_38 x_17_39 x_17_40 x_17_42 x_17_43
 x_17_44 x_17_45 x_17_47 x_17_49 x_18_20 x_18_21 x_18_22 x_18_23 x_18_24
 x_18_25 x_18_26 x_18_27 x_18_28 x_18_29 x_18_30 x_18_33 x_18_34 x_18_35
 x_18_36 x_18_37 x_18_38 x_18_39 x_18_41 x_18_42 x_18_43 x_18_45 x_18_48
 x_18_49 x_19_21 x_19_22 x_19_23 x_19_25 x_19_27 x_19_28 x_19_30 x_19_31
 x_19_33 x_19_34 x_19_36 x_19_38 x_19_39 x_19_40 x_19_42 x_19_44 x_19_46
 x_19_47 x_19_48 x_19_49 x_20_21 x_20_22 x_20_24 x_20_26 x_20_27 x_20_28
 x_20_29 x_20_30 x_20_31 x_20_33 x_20_34 x_20_35 x_20_36 x_20_38 x_20_39
 x_20_40 x_20_44 x_20_45 x_20_46 x_20_47 x_20_48 x_21_22 x_21_23 x_21_25
 x_21_26 x_21_27 x_21_28 x_21_29 x_21_31 x_21_32 x_21_33 x_21_34 x_21_36
 x_21_37 x_21_38 x_21_39 x_21_40 x_21_41 x_21_43 x_21_44 x_21_46 x_21_48
 x_22_19 x_22_23 x_22_25 x_22_26 x_22_27 x_22_28 x_22_30 x_22_31 x_22_32
 x_22_35 x_22_36 x_22_37 x_22_38 x_22_39 x_22_41 x_22_45 x_22_49 x_23_24
 x_23_26 x_23_27 x_23_28 x_23_29 x_23_30 x_23_31 x_23_34 x_23_35 x_23_36
 x_23_39 x_23_41 x_23_42 x_23_43 x_23_44 x_23_45 x_23_47 x_23_48 x_24_25
 x_24_27 x_24_28 x_24_29 x_24_31 x_24_32 x_24_33 x_24_35 x_24_36 x_24_37
 x_24_38 x_24_39 x_24_40 x_24_41 x_24_42 x_24_43 x_24_45 x_24_46 x_24_47
 x_24_48 x_24_49 x_25_27 x_25_29 x_25_30 x_25_32 x_25_33 x_25_34 x_25_35
 x_25_37 x_25_39 x_25_40 x_25_41 x_25_42 x_25_44 x_25_45 x_25_46 x_25_47
 x_25_48 x_25_49 x_26_27 x_26_28 x_26_29 x_26_31 x_26_32 x_26_33 x_26_35
 x_26_36 x_26_37 x_26_38 x_26_40 x_26_43 x_26_44 x_26_45 x_26_46 x_26_47
 x_26_48 x_26_49 x_27_28 x_27_29 x_27_30 x_27_31 x_27_32 x_27_34 x_27_36
 x_27_38 x_27_39 x_27_40 x_27_41 x_27_43 x_27_48 x_28_29 x_28_30 x_28_31
 x_28_32 x_28_34 x_28_36 x_28_37 x_28_38 x_28_39 x_28_40 x_28_43 x_28_45
 x_28_48 x_28_49 x_29_31 x_29_33 x_29_34 x_29_36 x_29_38 x_29_39 x_29_40
 x_29_41 x_29_42 x_29_43 x_29_44 x_29_46 x_29_47 x_29_48 x_29_49 x_30_31
 x_30_35 x_30_38 x_30_39 x_30_40 x_30_42 x_30_43 x_30_44 x_30_45 x_30_47
 x_30_49 x_31_32 x_31_35 x_31_36 x_31_38 x_31_39 x_31_40 x_31_41 x_31_42
 x_31_44 x_31_45 x_31_46 x_31_48 x_31_49 x_32_35 x_32_37 x_32_39 x_32_40
 x_32_44 x_32_45 x_32_46 x_33_34 x_33_38 x_33_39 x_33_40 x_33_41 x_33_42
 x_33_43 x_33_44 x_33_45 x_33_46 x_33_47 x_34_35 x_34_37 x_34_38 x_34_39
 x_34_40 x_34_41 x_34_44 x_34_46 x_34_47 x_34_48 x_35_38 x_35_40 x_35_41
 x_35_42 x_35_45 x_35_46 x_35_47 x_35_49 x_36_37 x_36_38 x_36_40 x_36_41
 x_36_42 x_36_45 x_36_47 x_36_48 x_36_49 x_37_38 x_37_39 x_37_41 x_37_42
 x_37_47 x_37_48 x_37_49 x_38_39 x_38_40 x_38_41 x_38_42 x_38_44 x_38_45
 x_38_46 x_38_47 x_38_49 x_39_41 x_39_44 x_39_45 x_39_46 x_39_47 x_39_48
 x_39_49 x_40_41 x_40_42 x_40_43 x_40_44 x_40_45 x_40_47 x_40_48 x_40_49
 x_41_42 x_41_44 x_41_45 x_41_46 x_41_48 x_41_49 x_42_44 x_42_45 x_42_46
 x_42_48 x_43_44 x_43_46 x_43_47 x_44_45 x_44_49 x_45_48 x_46_47 x_46_49
 x_47_48 x_47_49 x_48_49
End
